atom_style	granular
atom_modify	map array
boundary	m m m